[VALIDATOR STDOUT]
Checking plan: /home/jfan5/Safety-gen/runs/benchmark/optic/grid_20260215_230432/grid/optic_results/grid_x5_y5_sh2_k4_l4_s5001.plan
Plan to validate:

Plan size: 46
1:
(move pos4-2 pos3-2)
 
2:
(move pos3-2 pos2-2)
 
3:
(move pos2-2 pos1-2)
 
4:
(move pos1-2 pos1-3)
 
5:
(pickup pos1-3 key3)
 
6:
(unlock pos1-3 pos2-3 key3 shape0)
 
7:
(move pos1-3 pos1-2)
 
8:
(putdown pos1-2 key3)
 
9:
(move pos1-2 pos2-2)
 
10:
(pickup pos2-2 key2)
 
11:
(move pos2-2 pos1-2)
 
12:
(move pos1-2 pos1-1)
 
13:
(pickup-and-loose pos1-1 key0 key2)
 
14:
(move pos1-1 pos1-2)
 
15:
(move pos1-2 pos1-3)
 
16:
(move pos1-3 pos2-3)
 
17:
(unlock pos2-3 pos3-3 key0 shape0)
 
18:
(move pos2-3 pos1-3)
 
19:
(move pos1-3 pos1-2)
 
20:
(move pos1-2 pos1-1)
 
21:
(pickup-and-loose pos1-1 key1 key0)
 
22:
(move pos1-1 pos1-2)
 
23:
(move pos1-2 pos1-3)
 
24:
(move pos1-3 pos2-3)
 
25:
(move pos2-3 pos3-3)
 
26:
(putdown pos3-3 key1)
 
27:
(move pos3-3 pos2-3)
 
28:
(move pos2-3 pos1-3)
 
29:
(move pos1-3 pos1-2)
 
30:
(move pos1-2 pos1-1)
 
31:
(pickup pos1-1 key2)
 
32:
(pickup-and-loose pos1-1 key0 key2)
 
33:
(move pos1-1 pos1-2)
 
34:
(move pos1-2 pos1-3)
 
35:
(move pos1-3 pos2-3)
 
36:
(putdown pos2-3 key0)
 
37:
(move pos2-3 pos1-3)
 
38:
(move pos1-3 pos1-2)
 
39:
(move pos1-2 pos1-1)
 
40:
(pickup pos1-1 key2)
 
41:
(move pos1-1 pos1-2)
 
42:
(move pos1-2 pos1-3)
 
43:
(move pos1-3 pos2-3)
 
44:
(move pos2-3 pos2-4)
 
45:
(move pos2-4 pos3-4)
 
46:
(putdown pos3-4 key2)
 

Plan Validation details
-----------------------

Checking next happening (time 1)
Deleting (at-robot pos4-2)
Adding (at-robot pos3-2)

Checking next happening (time 2)
Deleting (at-robot pos3-2)
Adding (at-robot pos2-2)

Checking next happening (time 3)
Deleting (at-robot pos2-2)
Adding (at-robot pos1-2)

Checking next happening (time 4)
Deleting (at-robot pos1-2)
Adding (at-robot pos1-3)

Checking next happening (time 5)
Deleting (at key3 pos1-3)
Deleting (arm-empty)
Adding (holding key3)

Checking next happening (time 6)
Deleting (locked pos2-3)
Adding (open pos2-3)

Checking next happening (time 7)
Deleting (at-robot pos1-3)
Adding (at-robot pos1-2)

Checking next happening (time 8)
Deleting (holding key3)
Adding (arm-empty)
Adding (at key3 pos1-2)

Checking next happening (time 9)
Deleting (at-robot pos1-2)
Adding (at-robot pos2-2)

Checking next happening (time 10)
Deleting (at key2 pos2-2)
Deleting (arm-empty)
Adding (holding key2)

Checking next happening (time 11)
Deleting (at-robot pos2-2)
Adding (at-robot pos1-2)

Checking next happening (time 12)
Deleting (at-robot pos1-2)
Adding (at-robot pos1-1)

Checking next happening (time 13)
Deleting (holding key2)
Deleting (at key0 pos1-1)
Adding (holding key0)
Adding (at key2 pos1-1)

Checking next happening (time 14)
Deleting (at-robot pos1-1)
Adding (at-robot pos1-2)

Checking next happening (time 15)
Deleting (at-robot pos1-2)
Adding (at-robot pos1-3)

Checking next happening (time 16)
Deleting (at-robot pos1-3)
Adding (at-robot pos2-3)

Checking next happening (time 17)
Deleting (locked pos3-3)
Adding (open pos3-3)

Checking next happening (time 18)
Deleting (at-robot pos2-3)
Adding (at-robot pos1-3)

Checking next happening (time 19)
Deleting (at-robot pos1-3)
Adding (at-robot pos1-2)

Checking next happening (time 20)
Deleting (at-robot pos1-2)
Adding (at-robot pos1-1)

Checking next happening (time 21)
Deleting (holding key0)
Deleting (at key1 pos1-1)
Adding (holding key1)
Adding (at key0 pos1-1)

Checking next happening (time 22)
Deleting (at-robot pos1-1)
Adding (at-robot pos1-2)

Checking next happening (time 23)
Deleting (at-robot pos1-2)
Adding (at-robot pos1-3)

Checking next happening (time 24)
Deleting (at-robot pos1-3)
Adding (at-robot pos2-3)

Checking next happening (time 25)
Deleting (at-robot pos2-3)
Adding (at-robot pos3-3)

Checking next happening (time 26)
Deleting (holding key1)
Adding (arm-empty)
Adding (at key1 pos3-3)

Checking next happening (time 27)
Deleting (at-robot pos3-3)
Adding (at-robot pos2-3)

Checking next happening (time 28)
Deleting (at-robot pos2-3)
Adding (at-robot pos1-3)

Checking next happening (time 29)
Deleting (at-robot pos1-3)
Adding (at-robot pos1-2)

Checking next happening (time 30)
Deleting (at-robot pos1-2)
Adding (at-robot pos1-1)

Checking next happening (time 31)
Deleting (at key2 pos1-1)
Deleting (arm-empty)
Adding (holding key2)

Checking next happening (time 32)
Deleting (holding key2)
Deleting (at key0 pos1-1)
Adding (holding key0)
Adding (at key2 pos1-1)

Checking next happening (time 33)
Deleting (at-robot pos1-1)
Adding (at-robot pos1-2)

Checking next happening (time 34)
Deleting (at-robot pos1-2)
Adding (at-robot pos1-3)

Checking next happening (time 35)
Deleting (at-robot pos1-3)
Adding (at-robot pos2-3)

Checking next happening (time 36)
Deleting (holding key0)
Adding (arm-empty)
Adding (at key0 pos2-3)

Checking next happening (time 37)
Deleting (at-robot pos2-3)
Adding (at-robot pos1-3)

Checking next happening (time 38)
Deleting (at-robot pos1-3)
Adding (at-robot pos1-2)

Checking next happening (time 39)
Deleting (at-robot pos1-2)
Adding (at-robot pos1-1)

Checking next happening (time 40)
Deleting (at key2 pos1-1)
Deleting (arm-empty)
Adding (holding key2)

Checking next happening (time 41)
Deleting (at-robot pos1-1)
Adding (at-robot pos1-2)

Checking next happening (time 42)
Deleting (at-robot pos1-2)
Adding (at-robot pos1-3)

Checking next happening (time 43)
Deleting (at-robot pos1-3)
Adding (at-robot pos2-3)

Checking next happening (time 44)
Deleting (at-robot pos2-3)
Adding (at-robot pos2-4)

Checking next happening (time 45)
Deleting (at-robot pos2-4)
Adding (at-robot pos3-4)

Checking next happening (time 46)
Deleting (holding key2)
Adding (arm-empty)
Adding (at key2 pos3-4)
Plan executed successfully - checking goal
Plan valid
Final value: 46 

Successful plans:
Value: 46
 /home/jfan5/Safety-gen/runs/benchmark/optic/grid_20260215_230432/grid/optic_results/grid_x5_y5_sh2_k4_l4_s5001.plan 46
